unsat
(forall ((A (_ BitVec 2))
         (B (_ BitVec 1))
         (C (_ BitVec 1))
         (D (_ BitVec 8))
         (E (_ BitVec 32))
         (F (_ BitVec 8))
         (G (_ BitVec 1))
         (H (_ BitVec 3))
         (I (_ BitVec 3))
         (J (_ BitVec 1))
         (K (_ BitVec 8))
         (L (_ BitVec 32))
         (M (_ BitVec 2))
         (N (_ BitVec 2))
         (O (_ BitVec 1))
         (P (_ BitVec 8))
         (Q (_ BitVec 2))
         (R (_ BitVec 3))
         (S (_ BitVec 3))
         (T (_ BitVec 32))
         (U (_ BitVec 32))
         (V (_ BitVec 8))
         (W (_ BitVec 8))
         (X (_ BitVec 8))
         (Y (_ BitVec 1))
         (Z (_ BitVec 2))
         (A1 (_ BitVec 8))
         (B1 (_ BitVec 3))
         (C1 (_ BitVec 32))
         (D1 (_ BitVec 2))
         (E1 (_ BitVec 5))
         (F1 (_ BitVec 1))
         (G1 (_ BitVec 1))
         (H1 (_ BitVec 32))
         (I1 (_ BitVec 8))
         (J1 (_ BitVec 2))
         (K1 (_ BitVec 1))
         (L1 (_ BitVec 1))
         (M1 (_ BitVec 1))
         (N1 (_ BitVec 1))
         (O1 (_ BitVec 2))
         (P1 (_ BitVec 3))
         (Q1 (_ BitVec 2))
         (R1 (_ BitVec 1))
         (S1 (_ BitVec 1))
         (T1 (_ BitVec 1))
         (U1 (_ BitVec 1)))
  (! (let ((a!1 (bvlshr D (concat #b00000 (bvadd #b111 (bvmul #b111 I)))))
           (a!2 (bvlshr K (concat #b00000 (bvadd #b111 (bvmul #b111 H)))))
           (a!4 (or ((_ bit2bool 7) K)
                    (= J #b0)
                    (not (= ((_ extract 1 1) M) #b1))
                    (not ((_ bit2bool 7) D))))
           (a!5 (bvlshr I1 (concat #b00000 (bvadd #b111 (bvmul #b111 H)))))
           (a!6 (bvlshr I1 (concat #b00000 (bvadd #b111 (bvmul #b111 I)))))
           (a!8 (or ((_ bit2bool 31) E)
                    (= J #b0)
                    (not (= ((_ extract 1 1) M) #b1))
                    (not ((_ bit2bool 31) L))))
           (a!9 (or (= J #b0)
                    ((_ bit2bool 0) E)
                    (not (= ((_ extract 1 1) M) #b1))
                    (not ((_ bit2bool 0) L))))
           (a!10 (or (= J #b0)
                     ((_ bit2bool 7) D)
                     (not (= ((_ extract 1 1) M) #b1))
                     (not ((_ bit2bool 7) K))))
           (a!11 (or (= J #b0)
                     ((_ bit2bool 16) E)
                     (not (= ((_ extract 1 1) M) #b1))
                     (not ((_ bit2bool 16) L))))
           (a!13 (bvlshr K (concat #b00000 (bvadd #b111 (bvmul #b111 B1)))))
           (a!14 (bvlshr D (concat #b00000 (bvadd #b111 (bvmul #b111 B1)))))
           (a!16 (or ((_ bit2bool 15) E)
                     (= J #b0)
                     (not (= ((_ extract 1 1) M) #b1))
                     (not ((_ bit2bool 15) L))))
           (a!17 (or (= J #b0)
                     ((_ bit2bool 0) L)
                     (not (= ((_ extract 1 1) M) #b1))
                     (not ((_ bit2bool 0) E))))
           (a!19 (or (= J #b0)
                     ((_ bit2bool 31) L)
                     (not (= ((_ extract 1 1) M) #b1))
                     (not ((_ bit2bool 31) E))))
           (a!20 (or (= J #b0)
                     ((_ bit2bool 15) L)
                     (not (= ((_ extract 1 1) M) #b1))
                     (not ((_ bit2bool 15) E))))
           (a!21 (or (= J #b0)
                     ((_ bit2bool 16) L)
                     (not (= ((_ extract 1 1) M) #b1))
                     (not ((_ bit2bool 16) E))))
           (a!24 (bvlshr #x08 (concat #b00000 (bvadd #b111 (bvmul #b111 H)))))
           (a!25 (bvlshr #x40 (concat #b00000 (bvadd #b111 (bvmul #b111 H)))))
           (a!27 (bvlshr #x08 (concat #b00000 (bvadd #b110 (bvmul #b111 H)))))
           (a!28 (or (= J #b0)
                     ((_ bit2bool 0) I)
                     (not (= ((_ extract 1 1) M) #b1))
                     (not (= ((_ extract 0 0) H) #b1))))
           (a!29 (bvlshr #x04 (concat #b00000 (bvadd #b111 (bvmul #b111 H)))))
           (a!30 (bvlshr #x40 (concat #b00000 (bvadd #b110 (bvmul #b111 H)))))
           (a!32 (bvlshr #x20 (concat #b00000 (bvadd #b111 (bvmul #b111 H)))))
           (a!33 (bvlshr #x02 (concat #b00000 (bvadd #b111 (bvmul #b111 H)))))
           (a!34 (bvlshr #x41 (concat #b00000 (bvadd #b111 (bvmul #b111 I)))))
           (a!35 (bvlshr #x41 (concat #b00000 (bvadd #b111 (bvmul #b111 H)))))
           (a!37 (bvlshr #x01 (concat #b00000 (bvadd #b111 (bvmul #b111 H)))))
           (a!38 (or (= J #b0)
                     (not (= ((_ extract 1 1) M) #b1))
                     (not ((_ bit2bool 3) D))
                     (= ((_ extract 3 3) K) #b1)))
           (a!39 (or (= J #b0)
                     ((_ bit2bool 1) K)
                     (not (= ((_ extract 1 1) M) #b1))
                     (not ((_ bit2bool 1) D))))
           (a!40 (or ((_ bit2bool 5) K)
                     (= J #b0)
                     (not (= ((_ extract 1 1) M) #b1))
                     (not ((_ bit2bool 5) D))))
           (a!41 (or (= J #b0)
                     (not (= ((_ extract 1 1) M) #b1))
                     (not ((_ bit2bool 6) D))
                     (= ((_ extract 6 6) K) #b1)))
           (a!42 (or (= J #b0)
                     ((_ bit2bool 2) K)
                     (not (= ((_ extract 1 1) M) #b1))
                     (not ((_ bit2bool 2) D))))
           (a!43 (or (= J #b0)
                     ((_ bit2bool 0) K)
                     (not (= ((_ extract 1 1) M) #b1))
                     (not ((_ bit2bool 0) D))))
           (a!44 (or (= J #b0)
                     ((_ bit2bool 4) K)
                     (not (= ((_ extract 1 1) M) #b1))
                     (not ((_ bit2bool 4) D))))
           (a!45 (bvlshr K (concat #b00000 (bvadd #b110 (bvmul #b111 H)))))
           (a!48 (bvlshr D (concat #b00000 (bvadd #b101 (bvmul #b111 I)))))
           (a!49 (bvlshr K (concat #b00000 (bvadd #b101 (bvmul #b111 H)))))
           (a!52 (bvlshr D (concat #b00000 (bvadd #b110 (bvmul #b111 I)))))
           (a!54 (or ((_ bit2bool 6) D)
                     (not (= J #b1))
                     (not (= ((_ extract 1 1) M) #b1))
                     (not ((_ bit2bool 6) K))))
           (a!55 (bvlshr D (concat #b00000 (bvadd #b100 (bvmul #b111 I)))))
           (a!56 (bvlshr K (concat #b00000 (bvadd #b100 (bvmul #b111 H)))))
           (a!64 (or ((_ bit2bool 5) D)
                     (not (= J #b1))
                     (not (= ((_ extract 1 1) M) #b1))
                     (not ((_ bit2bool 5) K))))
           (a!68 (bvlshr #x11 (concat #b00000 (bvadd #b011 (bvmul #b111 I)))))
           (a!69 (bvlshr K (concat #b00000 (bvadd #b011 (bvmul #b111 H)))))
           (a!71 (bvlshr #x11 (concat #b00000 (bvadd #b110 (bvmul #b111 I)))))
           (a!87 (bvlshr #x04 (concat #b00000 (bvadd #b101 (bvmul #b111 I)))))
           (a!88 (bvlshr #x04 (concat #b00000 (bvadd #b110 (bvmul #b111 I)))))
           (a!89 (bvlshr #x04 (concat #b00000 (bvadd #b100 (bvmul #b111 I)))))
           (a!92 (or ((_ bit2bool 0) D)
                     (not (= J #b1))
                     (not (= ((_ extract 1 1) M) #b1))
                     (not ((_ bit2bool 0) K))))
           (a!93 (bvlshr #x12 (concat #b00000 (bvadd #b101 (bvmul #b111 I)))))
           (a!94 (bvlshr #x12 (concat #b00000 (bvadd #b110 (bvmul #b111 I)))))
           (a!95 (or ((_ bit2bool 3) D)
                     (not (= J #b1))
                     (not (= ((_ extract 1 1) M) #b1))
                     (not ((_ bit2bool 3) K))))
           (a!96 (or ((_ bit2bool 1) D)
                     (not (= J #b1))
                     (not (= ((_ extract 1 1) M) #b1))
                     (not ((_ bit2bool 1) K))))
           (a!98 (or ((_ bit2bool 2) D)
                     (not (= J #b1))
                     (not (= ((_ extract 1 1) M) #b1))
                     (not ((_ bit2bool 2) K))))
           (a!99 (bvlshr #x6f (concat #b00000 (bvadd #b110 (bvmul #b111 I)))))
           (a!100 (bvlshr I1 (concat #b00000 (bvadd #b110 (bvmul #b111 I)))))
           (a!102 (or ((_ bit2bool 4) D)
                      (not (= J #b1))
                      (not (= ((_ extract 1 1) M) #b1))
                      (not ((_ bit2bool 4) K)))))
     (let ((a!3 (or (= ((_ extract 0 0) a!1) #b1)
                    (= F #x00)
                    (= F #x03)
                    (= F #x01)
                    (not (= J #b1))
                    (not (= ((_ extract 0 0) a!2) #b1))))
           (a!7 (or (= J #b0)
                    (= ((_ extract 0 0) a!5) #b1)
                    (not (= ((_ extract 1 1) M) #b1))
                    (not (= ((_ extract 0 0) a!6) #b1))))
           (a!12 (or (= ((_ extract 0 0) a!6) #b1)
                     (= J #b0)
                     (not (= ((_ extract 1 1) M) #b1))
                     (not (= ((_ extract 0 0) a!5) #b1))))
           (a!15 (or (= J #b0)
                     (= ((_ extract 0 0) a!13) #b1)
                     (not (= ((_ extract 1 1) M) #b1))
                     (not (= ((_ extract 0 0) a!14) #b1))))
           (a!18 (or (= ((_ extract 0 0) a!1) #b1)
                     (= J #b0)
                     (not (= ((_ extract 1 1) M) #b1))
                     (not (= ((_ extract 0 0) a!13) #b1))
                     (not (= I B1))))
           (a!22 (or (= J #b0)
                     (= ((_ extract 0 0) a!2) #b1)
                     (not (= ((_ extract 1 1) M) #b1))
                     (not (= ((_ extract 0 0) a!1) #b1))))
           (a!23 (or (= C #b0)
                     (= ((_ extract 7 7) D) #b1)
                     (= J #b0)
                     (not (= I #b000))
                     (not (= ((_ extract 0 0) a!2) #b1))))
           (a!26 (or (= J #b0)
                     (not (= ((_ extract 1 1) M) #b1))
                     (not (= I #b001))
                     (= ((_ extract 0 0) a!25) #b1)))
           (a!31 (or (= J #b0)
                     (not (= I #b000))
                     (not (= ((_ extract 1 1) M) #b1))
                     (= ((_ extract 0 0) a!30) #b1)))
           (a!36 (or (= J #b0)
                     (not (= ((_ extract 1 1) M) #b1))
                     (not (= ((_ extract 0 0) a!34) #b1))
                     (= ((_ extract 0 0) a!35) #b1)))
           (a!46 (or (= J #b0)
                     (= F (concat #b000000 A))
                     (not (= D #x00))
                     (not ((_ bit2bool 1) F))
                     (not (= ((_ extract 0 0) a!45) #b1))))
           (a!47 (or (= C #b0)
                     (= J #b0)
                     (not (= D #x00))
                     (not (= F #x00))
                     (not (= ((_ extract 0 0) a!2) #b1))))
           (a!50 (or (= C #b0)
                     (= J #b0)
                     (= F #x03)
                     (= F #x01)
                     (= ((_ extract 0 0) a!48) #b1)
                     (not (= ((_ extract 0 0) a!49) #b1))))
           (a!51 (or (= C #b0)
                     (= J #b0)
                     (= ((_ extract 0 0) A) #b1)
                     (= ((_ extract 0 0) a!48) #b1)
                     (not (= ((_ extract 0 0) a!49) #b1))))
           (a!53 (or (= C #b0)
                     (= J #b0)
                     (= ((_ extract 0 0) a!52) #b1)
                     (not (= ((_ extract 0 0) a!45) #b1))
                     (= ((_ extract 0 0) A) #b1)))
           (a!57 (or (= C #b0)
                     (= F #x03)
                     (= F #x01)
                     (not (= J #b1))
                     (= ((_ extract 0 0) a!55) #b1)
                     (not (= ((_ extract 0 0) a!56) #b1))))
           (a!58 (or (not (= J #b1))
                     (not ((_ bit2bool 0) I))
                     (not ((_ bit2bool 1) I))
                     (not ((_ bit2bool 7) K))
                     (= ((_ extract 0 0) a!52) #b1)
                     (= ((_ extract 0 0) a!48) #b1)
                     (not (= ((_ extract 0 0) a!49) #b1))))
           (a!59 (or (= F #x00)
                     (= F #x03)
                     (= F #x01)
                     (not (= J #b1))
                     (= F #x02)
                     (= ((_ extract 0 0) a!48) #b1)
                     (not (= ((_ extract 0 0) a!49) #b1))))
           (a!60 (or (= F #x00)
                     (= F #x03)
                     (= F #x01)
                     (not (= J #b1))
                     (= ((_ extract 0 0) a!55) #b1)
                     (not (= ((_ extract 0 0) a!56) #b1))))
           (a!61 (or (not (= J #b1))
                     (not (= ((_ extract 1 1) M) #b1))
                     (= ((_ extract 0 0) a!55) #b1)
                     (not (= ((_ extract 0 0) a!56) #b1))))
           (a!62 (or (= A #b11)
                     (= A #b00)
                     (not (= J #b1))
                     (= ((_ extract 0 0) a!52) #b1)
                     (not (= ((_ extract 0 0) a!45) #b1))
                     (not (= ((_ extract 1 1) F) #b1))))
           (a!63 (or (= A #b00)
                     (= F #x03)
                     (= F #x01)
                     (not (= J #b1))
                     (= ((_ extract 0 0) a!52) #b1)
                     (not (= ((_ extract 0 0) a!45) #b1))))
           (a!65 (or (not (= J #b1))
                     (not (= ((_ extract 1 1) M) #b1))
                     (= ((_ extract 0 0) a!52) #b1)
                     (not (= ((_ extract 0 0) a!45) #b1))))
           (a!66 (or (not (= J #b1))
                     (not (= ((_ extract 1 1) M) #b1))
                     (= ((_ extract 0 0) a!48) #b1)
                     (not (= ((_ extract 0 0) a!49) #b1))))
           (a!67 (or (= ((_ extract 0 0) a!1) #b1)
                     (not (= J #b1))
                     (not (= ((_ extract 1 1) M) #b1))
                     (not (= ((_ extract 0 0) a!2) #b1))))
           (a!70 (or ((_ bit2bool 1) D)
                     ((_ bit2bool 5) D)
                     (not (= J #b1))
                     (not ((_ bit2bool 1) I))
                     (= ((_ extract 0 0) a!68) #b1)
                     (not (= ((_ extract 0 0) a!69) #b1))))
           (a!72 (or (not (= D #x00))
                     (not (= J #b1))
                     (not ((_ bit2bool 1) I))
                     (not (= ((_ extract 0 0) a!56) #b1))
                     (= ((_ extract 0 0) a!71) #b1)))
           (a!73 (or (= C #b0)
                     (not (= D #x00))
                     (not (= J #b1))
                     (= ((_ extract 0 0) A) #b1)
                     (not (= ((_ extract 0 0) a!69) #b1))))
           (a!74 (or (= C #b0)
                     (not (= D #x00))
                     (not (= J #b1))
                     (= ((_ extract 0 0) A) #b1)
                     (not (= ((_ extract 0 0) a!56) #b1))))
           (a!75 (or (= C #b0)
                     (not (= D #x00))
                     (not (= J #b1))
                     (= ((_ extract 0 0) A) #b1)
                     (not (= ((_ extract 0 0) a!49) #b1))))
           (a!76 (or (= F #x00)
                     (= F #x01)
                     (not (= D #x00))
                     (not (= J #b1))
                     (not (= ((_ extract 0 0) a!56) #b1))
                     (= ((_ extract 1 1) A) #b1)))
           (a!77 (or (= C #b0)
                     (not (= D #x00))
                     (not (= J #b1))
                     (not (= ((_ extract 0 0) a!45) #b1))
                     (= ((_ extract 0 0) A) #b1)))
           (a!78 (or (= A #b00)
                     (= F #x03)
                     (= F #x01)
                     (not (= D #x00))
                     (not (= J #b1))
                     (not (= ((_ extract 0 0) a!69) #b1))))
           (a!79 (or (= F #x01)
                     (not (= D #x00))
                     (not (= J #b1))
                     (not (= A #b01))
                     (not (= ((_ extract 0 0) a!49) #b1))))
           (a!80 (or (not (= D #x00))
                     (not (= J #b1))
                     (not (= A #b01))
                     (not (= ((_ extract 0 0) a!45) #b1))
                     (= ((_ extract 0 0) F) #b1)))
           (a!81 (or (not (= D #x00))
                     (not (= J #b1))
                     (not (= ((_ extract 1 1) M) #b1))
                     (not (= ((_ extract 0 0) a!69) #b1))))
           (a!82 (or (not (= D #x00))
                     (not (= J #b1))
                     (not (= ((_ extract 1 1) M) #b1))
                     (not (= ((_ extract 0 0) a!45) #b1))))
           (a!83 (or (= A #b11)
                     (= A #b00)
                     (= F #x01)
                     (not (= D #x00))
                     (not (= J #b1))
                     (not (= ((_ extract 0 0) a!45) #b1))))
           (a!84 (or (not (= D #x00))
                     (not (= J #b1))
                     (not (= ((_ extract 1 1) M) #b1))
                     (not (= ((_ extract 0 0) a!49) #b1))))
           (a!85 (or (not (= D #x00))
                     (not (= J #b1))
                     (not (= ((_ extract 1 1) M) #b1))
                     (not (= ((_ extract 0 0) a!2) #b1))))
           (a!86 (or (not (= D #x00))
                     (not (= J #b1))
                     (not (= ((_ extract 1 1) M) #b1))
                     (not (= ((_ extract 0 0) a!56) #b1))))
           (a!90 (or (= C #b0)
                     (not (= J #b1))
                     (= ((_ extract 0 0) A) #b1)
                     (= ((_ extract 0 0) a!55) #b1)
                     (not (= ((_ extract 0 0) a!56) #b1))
                     (= ((_ extract 0 0) a!87) #b1)
                     (= ((_ extract 0 0) a!88) #b1)
                     (= ((_ extract 0 0) a!89) #b1)))
           (a!91 (or (= F #x00)
                     (= F #x03)
                     (= F #x01)
                     ((_ bit2bool 3) D)
                     (not (= J #b1))
                     (not ((_ bit2bool 3) K))
                     (= F #x02)
                     (= ((_ extract 0 0) a!52) #b1)
                     (not (= ((_ extract 0 0) a!45) #b1))))
           (a!97 (or (= A #b00)
                     (= F #x03)
                     (= F #x01)
                     ((_ bit2bool 4) D)
                     (not (= J #b1))
                     (not ((_ bit2bool 4) K))
                     (= ((_ extract 0 0) a!48) #b1)
                     (not (= ((_ extract 0 0) a!49) #b1))))
           (a!101 (or (= C #b0)
                      (= F #x00)
                      (= F #x03)
                      (= F #x01)
                      (not (= J #b1))
                      (= F #x02)
                      (not (= ((_ extract 0 0) a!45) #b1))
                      (= ((_ extract 0 0) a!100) #b1)
                      (not (= I1 D)))))
     (let ((a!103 (and a!3
                       (not (= B #b0))
                       a!4
                       a!7
                       a!8
                       a!9
                       a!10
                       a!11
                       a!12
                       a!15
                       a!16
                       a!17
                       a!18
                       a!19
                       a!20
                       a!21
                       a!22
                       a!23
                       (or (= J #b0)
                           (not (= I #b100))
                           (= ((_ extract 0 0) a!24) #b1))
                       a!26
                       (or (= J #b0)
                           (= ((_ extract 0 0) a!27) #b1)
                           (not (= I #b011)))
                       a!28
                       (or (= J #b0)
                           (not (= I #b101))
                           (= ((_ extract 0 0) a!29) #b1))
                       a!31
                       (or (= J #b0)
                           (not (= I #b010))
                           (= ((_ extract 0 0) a!32) #b1))
                       (or (= J #b0)
                           (not (= I #b110))
                           (= ((_ extract 0 0) a!33) #b1))
                       a!36
                       (or (= J #b0)
                           (not (= I #b111))
                           (= ((_ extract 0 0) a!37) #b1))
                       a!38
                       a!39
                       a!40
                       (or (= C #b0)
                           ((_ bit2bool 6) K)
                           (= J #b0)
                           (not ((_ bit2bool 6) D))
                           (= ((_ extract 0 0) I) #b1))
                       a!41
                       a!42
                       a!43
                       (or (= C #b0)
                           (= J #b0)
                           ((_ bit2bool 4) K)
                           (not ((_ bit2bool 4) D))
                           (= ((_ extract 0 0) A) #b1))
                       a!44
                       a!46
                       a!47
                       a!50
                       a!51
                       a!53
                       a!54
                       (or ((_ bit2bool 5) D)
                           (not (= J #b1))
                           (not ((_ bit2bool 1) I))
                           (not ((_ bit2bool 5) K)))
                       (or (= C #b0)
                           (= F #x03)
                           (= F #x01)
                           ((_ bit2bool 5) D)
                           (not (= J #b1))
                           (not ((_ bit2bool 5) K))
                           (= ((_ extract 2 2) I) #b1))
                       (or (= C #b0)
                           (not (= I #b000))
                           ((_ bit2bool 5) D)
                           (not (= J #b1))
                           (not ((_ bit2bool 5) K)))
                       (or ((_ bit2bool 0) I)
                           (not (= J #b1))
                           (not ((_ bit2bool 1) I))
                           (not ((_ bit2bool 7) K))
                           (not ((_ bit2bool 2) K))
                           (= ((_ extract 0 0) a!48) #b1)
                           (= ((_ extract 0 0) a!55) #b1))
                       a!57
                       a!58
                       a!59
                       a!60
                       a!61
                       a!62
                       a!63
                       a!64
                       a!65
                       a!66
                       a!67
                       a!70
                       a!72
                       a!73
                       a!74
                       a!75
                       a!76
                       a!77
                       a!78
                       a!79
                       a!80
                       a!81
                       a!82
                       a!83
                       a!84
                       a!85
                       a!86
                       (or (= C #b0)
                           ((_ bit2bool 3) D)
                           (not (= J #b1))
                           (not ((_ bit2bool 3) K))
                           (= ((_ extract 0 0) I) #b1))
                       a!90
                       (or (= A #b00)
                           (= F #x03)
                           (= F #x01)
                           ((_ bit2bool 0) D)
                           (not (= J #b1))
                           (not ((_ bit2bool 0) K)))
                       a!91
                       a!92
                       (or (= A #b00)
                           ((_ bit2bool 0) D)
                           (not (= J #b1))
                           (not ((_ bit2bool 0) K))
                           (= ((_ extract 0 0) a!93) #b1))
                       (or (= C #b0)
                           ((_ bit2bool 0) D)
                           (not (= J #b1))
                           (not ((_ bit2bool 0) K))
                           (= ((_ extract 0 0) a!93) #b1))
                       (or (= F #x00)
                           (= F #x03)
                           (= F #x01)
                           ((_ bit2bool 0) D)
                           (not (= J #b1))
                           (not ((_ bit2bool 0) K))
                           (= ((_ extract 0 0) a!94) #b1))
                       (or (= C #b0)
                           (= F #x03)
                           (= F #x01)
                           ((_ bit2bool 1) D)
                           (not (= J #b1))
                           (not ((_ bit2bool 1) K)))
                       a!95
                       a!96
                       (or (= F #x00)
                           (= F #x03)
                           (= F #x01)
                           ((_ bit2bool 1) D)
                           (not (= J #b1))
                           (not ((_ bit2bool 1) K))
                           (= F #x02))
                       (or (= C #b0)
                           ((_ bit2bool 4) D)
                           (not (= J #b1))
                           (not ((_ bit2bool 4) K))
                           (= ((_ extract 0 0) I) #b1))
                       a!97
                       (or (= C #b0)
                           (= F #x03)
                           (= F #x01)
                           ((_ bit2bool 2) D)
                           (not (= J #b1))
                           (not ((_ bit2bool 2) K)))
                       (or (= F #x00)
                           (= F #x03)
                           (= F #x01)
                           ((_ bit2bool 2) D)
                           (not (= J #b1))
                           (not ((_ bit2bool 2) K))
                           (= F #x02))
                       a!98
                       (or ((_ bit2bool 2) D)
                           (not (= J #b1))
                           (not ((_ bit2bool 2) K))
                           (= ((_ extract 0 0) a!99) #b1))
                       (or (= F #x00)
                           ((_ bit2bool 4) D)
                           (not (= J #b1))
                           (not ((_ bit2bool 4) K))
                           (= ((_ extract 0 0) I) #b1))
                       a!101
                       a!102)))
       (= (INV!slice!1 A
                       B
                       C
                       D
                       E
                       F
                       G
                       H
                       I
                       J
                       K
                       L
                       M
                       N
                       O
                       P
                       Q
                       R
                       S
                       T
                       U
                       V
                       W
                       X
                       Y
                       Z
                       A1
                       B1
                       C1
                       D1
                       E1
                       F1
                       G1
                       H1
                       I1
                       J1
                       K1
                       L1
                       M1
                       N1
                       O1
                       P1
                       Q1
                       R1
                       S1
                       T1
                       U1)
          a!103))))
     :weight 0))
